NAME : pairopt.17003.tour
COMMENT : Length = 17003
COMMENT : Found by LKH-3 [Keld Helsgaun] Sat Mar  1 22:57:24 2025
TYPE : TOUR
DIMENSION : 40
TOUR_SECTION
1
20
21
3
4
5
6
7
8
39
23
14
38
37
36
11
12
13
22
15
18
16
17
19
40
24
2
32
30
31
29
28
27
26
25
33
34
35
10
9
-1
EOF
